n = 21;
k = 3;
roles = [
{f, g},
{m, g},
{d, f},
{g, m},
{d, g},
{g, f},
{d, g},
{m, g},
{d, g},
{f, m},
{d, g},
{m, f},
{m, g},
{g, d},
{g, d},
{d, m},
{g, d},
{d, m},
{m, g},
{g, f},
{m, d}
];
num_pairs = 2;
player1 = [18, 5];
player2 = [3, 8];
